p tw 52 72
1 2
1 9
3 4
3 10
5 6
5 11
7 8
7 12
9 13
9 14
10 14
10 15
11 16
11 17
12 17
12 18
13 14
13 19
14 15
15 20
16 17
16 21
17 18
18 22
19 23
19 24
20 26
20 27
21 24
21 25
22 27
22 28
23 24
23 29
24 25
25 31
26 27
26 30
27 28
28 32
29 33
29 34
30 34
30 35
31 36
31 37
32 37
32 38
33 34
33 39
34 35
35 40
36 37
36 41
37 38
38 42
39 43
39 44
40 46
40 47
41 44
41 45
42 47
42 48
43 44
43 49
44 45
45 51
46 47
46 50
47 48
48 52
